% File represents an instance of a Composite Structure problem to be solved by a CP framework
% Created on 2025-03-25 14:05:16.696
T = 44;
n = 36;
m = 60;
edges = [(2, 1),
(7, 8),
(14, 13),
(19, 20),
(25, 26),
(32, 31),
(2, 3),
(8, 9),
(15, 14),
(21, 20),
(26, 27),
(33, 32),
(3, 4),
(9, 10),
(16, 15),
(22, 21),
(28, 27),
(33, 34),
(5, 4),
(10, 11),
(16, 17),
(22, 23),
(29, 28),
(35, 34),
(6, 5),
(11, 12),
(18, 17),
(24, 23),
(30, 29),
(36, 35),
(1, 7),
(7, 13),
(19, 13),
(19, 25),
(25, 31),
(2, 8),
(8, 14),
(20, 14),
(20, 26),
(26, 32),
(9, 3),
(9, 15),
(15, 21),
(21, 27),
(27, 33),
(10, 4),
(16, 10),
(22, 16),
(28, 22),
(28, 34),
(11, 5),
(17, 11),
(23, 17),
(29, 23),
(29, 35),
(12, 6),
(18, 12),
(24, 18),
(30, 24),
(36, 30)];
counts = [|9, 14, 5, 6,
|9, 15, 5, 6,
|6, 9, 5, 5,
|5, 6, 2, 2,
|5, 7, 2, 2,
|6, 7, 2, 2,
|9, 13, 5, 6,
|8, 13, 5, 6,
|7, 13, 5, 6,
|6, 11, 3, 3,
|6, 9, 3, 2,
|6, 9, 2, 2,
|5, 13, 5, 3,
|5, 13, 5, 4,
|6, 13, 5, 6,
|6, 14, 5, 6,
|6, 10, 3, 2,
|6, 11, 3, 2,
|7, 15, 6, 8,
|5, 13, 5, 5,
|5, 13, 5, 6,
|6, 14, 5, 7,
|6, 13, 5, 2,
|7, 13, 5, 2,
|4, 13, 6, 5,
|4, 13, 5, 5,
|3, 13, 5, 5,
|6, 14, 5, 8,
|6, 14, 5, 10,
|7, 14, 5, 10,
|3, 8, 4, 3,
|3, 9, 4, 3,
|3, 12, 5, 5,
|3, 11, 5, 5,
|5, 14, 5, 10,
|7, 15, 5, 17|];
